
        $ From http://www.csplib.org/Problems/prob009/data/helmut.pdf
        $ Problem number 86
        $ Sequence length : 25
        language ESSENCE' 1.0
        letting sizemaster be 320
        letting sizes be sequence(3,4,6,8,9,14,15,16,24,28,30,31,34,38,39,42,59,60,71,78,79,90,92,150,170)
        